# Objective value = 6
x0,1_7 0
x0,1_15 0
x0,1_18 1
x0,1_22 0
x0,1_26 0
x0,1_35 0
x0,1_37 0
x0,1_43 0
x0,1_61 0
x0,2_7 0
x0,2_15 0
x0,2_18 0
x0,2_22 0
x0,2_26 1
x0,2_35 0
x0,2_37 0
x0,2_43 0
x0,2_61 0
x0,3_7 0
x0,3_15 0
x0,3_18 0
x0,3_22 0
x0,3_26 0
x0,3_35 0
x0,3_37 0
x0,3_43 0
x0,3_61 0
x0,4_7 0
x0,4_15 0
x0,4_18 0
x0,4_22 0
x0,4_26 0
x0,4_35 0
x0,4_37 0
x0,4_43 0
x0,4_61 0
x0,5_7 0
x0,5_15 0
x0,5_18 0
x0,5_22 0
x0,5_26 0
x0,5_35 0
x0,5_37 0
x0,5_43 0
x0,5_61 1
x0,6_7 0
x0,6_15 0
x0,6_18 0
x0,6_22 0
x0,6_26 0
x0,6_35 0
x0,6_37 0
x0,6_43 0
x0,6_61 0
x0,7_7 0
x0,7_15 0
x0,7_18 0
x0,7_22 0
x0,7_26 0
x0,7_35 0
x0,7_37 0
x0,7_43 0
x0,7_61 0
x0,8_7 0
x0,8_15 0
x0,8_18 0
x0,8_22 0
x0,8_26 0
x0,8_35 0
x0,8_37 0
x0,8_43 0
x0,8_61 0
x0,9_7 0
x0,9_15 0
x0,9_18 0
x0,9_22 0
x0,9_26 0
x0,9_35 0
x0,9_37 0
x0,9_43 0
x0,9_61 0
x1,2_7 0
x1,2_15 0
x1,2_18 0
x1,2_22 0
x1,2_26 0
x1,2_35 0
x1,2_37 0
x1,2_43 0
x1,2_61 0
x1,3_7 0
x1,3_15 1
x1,3_18 0
x1,3_22 0
x1,3_26 0
x1,3_35 0
x1,3_37 0
x1,3_43 0
x1,3_61 0
x1,4_7 0
x1,4_15 0
x1,4_18 0
x1,4_22 0
x1,4_26 0
x1,4_35 0
x1,4_37 1
x1,4_43 0
x1,4_61 0
x1,5_7 0
x1,5_15 0
x1,5_18 0
x1,5_22 0
x1,5_26 0
x1,5_35 0
x1,5_37 0
x1,5_43 1
x1,5_61 0
x1,6_7 0
x1,6_15 0
x1,6_18 0
x1,6_22 0
x1,6_26 0
x1,6_35 0
x1,6_37 0
x1,6_43 0
x1,6_61 0
x1,7_7 0
x1,7_15 0
x1,7_18 0
x1,7_22 0
x1,7_26 0
x1,7_35 0
x1,7_37 0
x1,7_43 0
x1,7_61 0
x1,8_7 0
x1,8_15 0
x1,8_18 0
x1,8_22 0
x1,8_26 0
x1,8_35 0
x1,8_37 0
x1,8_43 0
x1,8_61 0
x1,9_7 0
x1,9_15 0
x1,9_18 0
x1,9_22 0
x1,9_26 0
x1,9_35 0
x1,9_37 0
x1,9_43 0
x1,9_61 0
x2,3_7 1
x2,3_15 0
x2,3_18 0
x2,3_22 0
x2,3_26 0
x2,3_35 0
x2,3_37 0
x2,3_43 0
x2,3_61 0
x2,4_7 0
x2,4_15 0
x2,4_18 0
x2,4_22 0
x2,4_26 0
x2,4_35 0
x2,4_37 0
x2,4_43 0
x2,4_61 0
x2,5_7 0
x2,5_15 0
x2,5_18 0
x2,5_22 0
x2,5_26 0
x2,5_35 1
x2,5_37 0
x2,5_43 0
x2,5_61 0
x2,6_7 0
x2,6_15 0
x2,6_18 0
x2,6_22 0
x2,6_26 0
x2,6_35 0
x2,6_37 0
x2,6_43 0
x2,6_61 0
x2,7_7 0
x2,7_15 0
x2,7_18 0
x2,7_22 0
x2,7_26 0
x2,7_35 0
x2,7_37 0
x2,7_43 0
x2,7_61 0
x2,8_7 0
x2,8_15 0
x2,8_18 0
x2,8_22 0
x2,8_26 0
x2,8_35 0
x2,8_37 0
x2,8_43 0
x2,8_61 0
x2,9_7 0
x2,9_15 0
x2,9_18 0
x2,9_22 0
x2,9_26 0
x2,9_35 0
x2,9_37 0
x2,9_43 0
x2,9_61 0
x3,4_7 0
x3,4_15 0
x3,4_18 0
x3,4_22 1
x3,4_26 0
x3,4_35 0
x3,4_37 0
x3,4_43 0
x3,4_61 0
x3,5_7 0
x3,5_15 0
x3,5_18 0
x3,5_22 0
x3,5_26 0
x3,5_35 0
x3,5_37 0
x3,5_43 0
x3,5_61 0
x3,6_7 0
x3,6_15 0
x3,6_18 0
x3,6_22 0
x3,6_26 0
x3,6_35 0
x3,6_37 0
x3,6_43 0
x3,6_61 0
x3,7_7 0
x3,7_15 0
x3,7_18 0
x3,7_22 0
x3,7_26 0
x3,7_35 0
x3,7_37 0
x3,7_43 0
x3,7_61 0
x3,8_7 0
x3,8_15 0
x3,8_18 0
x3,8_22 0
x3,8_26 0
x3,8_35 0
x3,8_37 0
x3,8_43 0
x3,8_61 0
x3,9_7 0
x3,9_15 0
x3,9_18 0
x3,9_22 0
x3,9_26 0
x3,9_35 0
x3,9_37 0
x3,9_43 0
x3,9_61 0
x4,5_7 0
x4,5_15 0
x4,5_18 0
x4,5_22 0
x4,5_26 0
x4,5_35 0
x4,5_37 0
x4,5_43 0
x4,5_61 0
x4,6_7 0
x4,6_15 0
x4,6_18 0
x4,6_22 0
x4,6_26 0
x4,6_35 0
x4,6_37 0
x4,6_43 0
x4,6_61 0
x4,7_7 0
x4,7_15 0
x4,7_18 0
x4,7_22 0
x4,7_26 0
x4,7_35 0
x4,7_37 0
x4,7_43 0
x4,7_61 0
x4,8_7 0
x4,8_15 0
x4,8_18 0
x4,8_22 0
x4,8_26 0
x4,8_35 0
x4,8_37 0
x4,8_43 0
x4,8_61 0
x4,9_7 0
x4,9_15 0
x4,9_18 0
x4,9_22 0
x4,9_26 0
x4,9_35 0
x4,9_37 0
x4,9_43 0
x4,9_61 0
x5,6_7 0
x5,6_15 0
x5,6_18 0
x5,6_22 0
x5,6_26 0
x5,6_35 0
x5,6_37 0
x5,6_43 0
x5,6_61 0
x5,7_7 0
x5,7_15 0
x5,7_18 0
x5,7_22 0
x5,7_26 0
x5,7_35 0
x5,7_37 0
x5,7_43 0
x5,7_61 0
x5,8_7 0
x5,8_15 0
x5,8_18 0
x5,8_22 0
x5,8_26 0
x5,8_35 0
x5,8_37 0
x5,8_43 0
x5,8_61 0
x5,9_7 0
x5,9_15 0
x5,9_18 0
x5,9_22 0
x5,9_26 0
x5,9_35 0
x5,9_37 0
x5,9_43 0
x5,9_61 0
x6,7_7 0
x6,7_15 0
x6,7_18 0
x6,7_22 0
x6,7_26 0
x6,7_35 0
x6,7_37 0
x6,7_43 0
x6,7_61 0
x6,8_7 0
x6,8_15 0
x6,8_18 0
x6,8_22 0
x6,8_26 0
x6,8_35 0
x6,8_37 0
x6,8_43 0
x6,8_61 0
x6,9_7 0
x6,9_15 0
x6,9_18 0
x6,9_22 0
x6,9_26 0
x6,9_35 0
x6,9_37 0
x6,9_43 0
x6,9_61 0
x7,8_7 0
x7,8_15 0
x7,8_18 0
x7,8_22 0
x7,8_26 0
x7,8_35 0
x7,8_37 0
x7,8_43 0
x7,8_61 0
x7,9_7 0
x7,9_15 0
x7,9_18 0
x7,9_22 0
x7,9_26 0
x7,9_35 0
x7,9_37 0
x7,9_43 0
x7,9_61 0
x8,9_7 0
x8,9_15 0
x8,9_18 0
x8,9_22 0
x8,9_26 0
x8,9_35 0
x8,9_37 0
x8,9_43 0
x8,9_61 0
z0 1
z1 1
z2 1
z3 1
z4 1
z5 1
z6 0
z7 0
z8 0
z9 0
p0 0
p1 18
p2 26
p3 33
p4 55
p5 61
p6 63
p7 64
p8 65
p9 66
